(set-logic QF_S)
(declare-const x String)
(declare-const y String)
(assert (str.in.re x (re.+ (re.union (str.to.re "AABB") (re.union (str.to.re "aaee") (str.to.re "$$UUww"))))))
(assert (= 20 (str.len x)))
(check-sat)
